p cnf 430 1488
-191 -59 0
-191 -55 0
-191 170 0
-191 -172 0
-191 -93 0
191 59 55 -170 172 93 0
-192 -106 0
-192 8 0
-192 127 0
-192 -33 0
-192 -166 0
192 106 -8 -127 33 166 0
-193 163 0
-193 77 0
-193 -85 0
-193 26 0
-193 -83 0
193 -163 -77 85 -26 83 0
-194 44 0
-194 -49 0
-194 -41 0
-194 -177 0
-194 -165 0
194 -44 49 41 177 165 0
-195 -102 0
-195 -18 0
-195 -17 0
-195 -177 0
-195 -172 0
195 102 18 17 177 172 0
191 192 193 194 195 0
-196 -144 0
-196 -27 0
-196 -49 0
-196 -20 0
-196 5 0
196 144 27 49 20 -5 0
-197 -56 0
-197 96 0
-197 74 0
-197 -90 0
-197 -59 0
197 56 -96 -74 90 59 0
-198 136 0
-198 74 0
-198 32 0
-198 -59 0
-198 53 0
198 -136 -74 -32 59 -53 0
-199 -135 0
-199 1 0
-199 43 0
-199 152 0
-199 130 0
199 135 -1 -43 -152 -130 0
-200 80 0
-200 57 0
-200 172 0
-200 133 0
-200 95 0
200 -80 -57 -172 -133 -95 0
196 197 198 199 200 0
-201 -90 0
-201 176 0
-201 18 0
-201 -153 0
-201 -43 0
201 90 -176 -18 153 43 0
-202 -132 0
-202 -179 0
-202 104 0
-202 -5 0
-202 -139 0
202 132 179 -104 5 139 0
-203 30 0
-203 -149 0
-203 8 0
-203 74 0
-203 7 0
203 -30 149 -8 -74 -7 0
-204 -6 0
-204 2 0
-204 172 0
-204 75 0
-204 -60 0
204 6 -2 -172 -75 60 0
-205 -102 0
-205 98 0
-205 -78 0
-205 60 0
-205 -166 0
205 102 -98 78 -60 166 0
201 202 203 204 205 0
-206 188 0
-206 -59 0
-206 -183 0
-206 -19 0
-206 -149 0
206 -188 59 183 19 149 0
-207 -61 0
-207 -180 0
-207 -122 0
-207 111 0
-207 -123 0
207 61 180 122 -111 123 0
-208 74 0
-208 -184 0
-208 -177 0
-208 163 0
-208 15 0
208 -74 184 177 -163 -15 0
-209 -141 0
-209 41 0
-209 61 0
-209 -183 0
-209 188 0
209 141 -41 -61 183 -188 0
-210 -60 0
-210 -12 0
-210 184 0
-210 -186 0
-210 -34 0
210 60 12 -184 186 34 0
206 207 208 209 210 0
-211 -93 0
-211 -39 0
-211 -3 0
-211 65 0
-211 52 0
211 93 39 3 -65 -52 0
-212 -108 0
-212 10 0
-212 -85 0
-212 45 0
-212 -128 0
212 108 -10 85 -45 128 0
-213 -187 0
-213 159 0
-213 2 0
-213 133 0
-213 -64 0
213 187 -159 -2 -133 64 0
-214 -83 0
-214 90 0
-214 -113 0
-214 -4 0
-214 1 0
214 83 -90 113 4 -1 0
-215 99 0
-215 -148 0
-215 -65 0
-215 20 0
-215 93 0
215 -99 148 65 -20 -93 0
211 212 213 214 215 0
-216 -24 0
-216 169 0
-216 -190 0
-216 -135 0
-216 -42 0
216 24 -169 190 135 42 0
-217 178 0
-217 32 0
-217 -153 0
-217 -147 0
-217 -6 0
217 -178 -32 153 147 6 0
-218 -142 0
-218 34 0
-218 -115 0
-218 134 0
-218 154 0
218 142 -34 115 -134 -154 0
-219 -4 0
-219 97 0
-219 40 0
-219 -113 0
-219 7 0
219 4 -97 -40 113 -7 0
-220 -32 0
-220 -188 0
-220 -135 0
-220 -41 0
-220 5 0
220 32 188 135 41 -5 0
216 217 218 219 220 0
-221 154 0
-221 -128 0
-221 34 0
-221 13 0
-221 173 0
221 -154 128 -34 -13 -173 0
-222 47 0
-222 -112 0
-222 108 0
-222 25 0
-222 62 0
222 -47 112 -108 -25 -62 0
-223 -140 0
-223 47 0
-223 190 0
-223 -166 0
-223 -63 0
223 140 -47 -190 166 63 0
-224 -181 0
-224 119 0
-224 -174 0
-224 188 0
-224 139 0
224 181 -119 174 -188 -139 0
-225 -184 0
-225 -85 0
-225 -71 0
-225 -149 0
-225 -106 0
225 184 85 71 149 106 0
221 222 223 224 225 0
-226 -158 0
-226 -135 0
-226 -89 0
-226 9 0
-226 -131 0
226 158 135 89 -9 131 0
-227 62 0
-227 98 0
-227 -51 0
-227 -6 0
-227 181 0
227 -62 -98 51 6 -181 0
-228 -181 0
-228 -4 0
-228 -148 0
-228 110 0
-228 -94 0
228 181 4 148 -110 94 0
-229 49 0
-229 140 0
-229 91 0
-229 -46 0
-229 -121 0
229 -49 -140 -91 46 121 0
-230 100 0
-230 -107 0
-230 -56 0
-230 43 0
-230 169 0
230 -100 107 56 -43 -169 0
226 227 228 229 230 0
-231 147 0
-231 30 0
-231 149 0
-231 -37 0
-231 -68 0
231 -147 -30 -149 37 68 0
-232 -102 0
-232 -189 0
-232 30 0
-232 137 0
-232 2 0
232 102 189 -30 -137 -2 0
-233 -134 0
-233 14 0
-233 126 0
-233 -84 0
-233 51 0
233 134 -14 -126 84 -51 0
-234 -142 0
-234 -105 0
-234 -2 0
-234 -121 0
-234 66 0
234 142 105 2 121 -66 0
-235 -177 0
-235 -127 0
-235 -141 0
-235 61 0
-235 124 0
235 177 127 141 -61 -124 0
231 232 233 234 235 0
-236 -83 0
-236 11 0
-236 -136 0
-236 -19 0
-236 -184 0
236 83 -11 136 19 184 0
-237 -80 0
-237 -173 0
-237 114 0
-237 -189 0
-237 30 0
237 80 173 -114 189 -30 0
-238 -72 0
-238 -7 0
-238 -157 0
-238 -178 0
-238 60 0
238 72 7 157 178 -60 0
-239 156 0
-239 -53 0
-239 -175 0
-239 -130 0
-239 20 0
239 -156 53 175 130 -20 0
-240 -9 0
-240 -78 0
-240 148 0
-240 112 0
-240 93 0
240 9 78 -148 -112 -93 0
236 237 238 239 240 0
-241 116 0
-241 52 0
-241 -63 0
-241 -9 0
-241 -37 0
241 -116 -52 63 9 37 0
-242 -51 0
-242 -75 0
-242 -116 0
-242 -47 0
-242 -30 0
242 51 75 116 47 30 0
-243 96 0
-243 -89 0
-243 -9 0
-243 61 0
-243 56 0
243 -96 89 9 -61 -56 0
-244 112 0
-244 -9 0
-244 121 0
-244 -1 0
-244 -8 0
244 -112 9 -121 1 8 0
-245 108 0
-245 -82 0
-245 -71 0
-245 -190 0
-245 129 0
245 -108 82 71 190 -129 0
241 242 243 244 245 0
-246 -55 0
-246 -80 0
-246 -153 0
-246 75 0
-246 120 0
246 55 80 153 -75 -120 0
-247 -7 0
-247 -94 0
-247 -18 0
-247 -129 0
-247 66 0
247 7 94 18 129 -66 0
-248 -97 0
-248 -68 0
-248 139 0
-248 58 0
-248 35 0
248 97 68 -139 -58 -35 0
-249 -80 0
-249 -178 0
-249 26 0
-249 -56 0
-249 -107 0
249 80 178 -26 56 107 0
-250 183 0
-250 -29 0
-250 1 0
-250 189 0
-250 -10 0
250 -183 29 -1 -189 10 0
246 247 248 249 250 0
-251 -119 0
-251 -20 0
-251 122 0
-251 -161 0
-251 164 0
251 119 20 -122 161 -164 0
-252 -142 0
-252 168 0
-252 -125 0
-252 -181 0
-252 57 0
252 142 -168 125 181 -57 0
-253 111 0
-253 -81 0
-253 188 0
-253 34 0
-253 138 0
253 -111 81 -188 -34 -138 0
-254 -2 0
-254 93 0
-254 -138 0
-254 -10 0
-254 29 0
254 2 -93 138 10 -29 0
-255 165 0
-255 -171 0
-255 66 0
-255 67 0
-255 115 0
255 -165 171 -66 -67 -115 0
251 252 253 254 255 0
-256 56 0
-256 65 0
-256 39 0
-256 166 0
-256 125 0
256 -56 -65 -39 -166 -125 0
-257 -158 0
-257 17 0
-257 36 0
-257 -41 0
-257 -101 0
257 158 -17 -36 41 101 0
-258 51 0
-258 -29 0
-258 -148 0
-258 147 0
-258 181 0
258 -51 29 148 -147 -181 0
-259 -57 0
-259 143 0
-259 43 0
-259 146 0
-259 148 0
259 57 -143 -43 -146 -148 0
-260 78 0
-260 109 0
-260 -113 0
-260 97 0
-260 -189 0
260 -78 -109 113 -97 189 0
256 257 258 259 260 0
-261 -92 0
-261 65 0
-261 -169 0
-261 -108 0
-261 -30 0
261 92 -65 169 108 30 0
-262 -137 0
-262 3 0
-262 -42 0
-262 18 0
-262 174 0
262 137 -3 42 -18 -174 0
-263 85 0
-263 104 0
-263 -55 0
-263 -161 0
-263 -147 0
263 -85 -104 55 161 147 0
-264 17 0
-264 -7 0
-264 -76 0
-264 51 0
-264 -27 0
264 -17 7 76 -51 27 0
-265 5 0
-265 -108 0
-265 -145 0
-265 -36 0
-265 -33 0
265 -5 108 145 36 33 0
261 262 263 264 265 0
-266 -23 0
-266 -108 0
-266 123 0
-266 -102 0
-266 -74 0
266 23 108 -123 102 74 0
-267 165 0
-267 -107 0
-267 -7 0
-267 -34 0
-267 -3 0
267 -165 107 7 34 3 0
-268 -24 0
-268 17 0
-268 -96 0
-268 -59 0
-268 -55 0
268 24 -17 96 59 55 0
-269 -70 0
-269 118 0
-269 1 0
-269 115 0
-269 -24 0
269 70 -118 -1 -115 24 0
-270 32 0
-270 119 0
-270 -146 0
-270 -13 0
-270 84 0
270 -32 -119 146 13 -84 0
266 267 268 269 270 0
-271 -109 0
-271 -170 0
-271 62 0
-271 137 0
-271 -64 0
271 109 170 -62 -137 64 0
-272 -158 0
-272 -60 0
-272 -47 0
-272 106 0
-272 176 0
272 158 60 47 -106 -176 0
-273 186 0
-273 25 0
-273 -61 0
-273 -27 0
-273 8 0
273 -186 -25 61 27 -8 0
-274 156 0
-274 169 0
-274 152 0
-274 4 0
-274 -85 0
274 -156 -169 -152 -4 85 0
-275 -116 0
-275 -16 0
-275 -107 0
-275 159 0
-275 -89 0
275 116 16 107 -159 89 0
271 272 273 274 275 0
-276 -19 0
-276 -102 0
-276 88 0
-276 107 0
-276 -182 0
276 19 102 -88 -107 182 0
-277 -180 0
-277 33 0
-277 -2 0
-277 29 0
-277 -166 0
277 180 -33 2 -29 166 0
-278 102 0
-278 -177 0
-278 -146 0
-278 -117 0
-278 64 0
278 -102 177 146 117 -64 0
-279 -189 0
-279 -182 0
-279 -79 0
-279 107 0
-279 85 0
279 189 182 79 -107 -85 0
-280 -32 0
-280 188 0
-280 -107 0
-280 -80 0
-280 96 0
280 32 -188 107 80 -96 0
276 277 278 279 280 0
-281 -99 0
-281 -134 0
-281 -186 0
-281 -49 0
-281 15 0
281 99 134 186 49 -15 0
-282 -10 0
-282 -118 0
-282 -61 0
-282 -128 0
-282 -83 0
282 10 118 61 128 83 0
-283 -62 0
-283 88 0
-283 55 0
-283 -114 0
-283 -27 0
283 62 -88 -55 114 27 0
-284 100 0
-284 9 0
-284 26 0
-284 97 0
-284 157 0
284 -100 -9 -26 -97 -157 0
-285 73 0
-285 127 0
-285 153 0
-285 -138 0
-285 14 0
285 -73 -127 -153 138 -14 0
281 282 283 284 285 0
-286 90 0
-286 -123 0
-286 159 0
-286 -95 0
-286 -24 0
286 -90 123 -159 95 24 0
-287 -1 0
-287 173 0
-287 167 0
-287 131 0
-287 99 0
287 1 -173 -167 -131 -99 0
-288 75 0
-288 55 0
-288 -61 0
-288 -60 0
-288 145 0
288 -75 -55 61 60 -145 0
-289 182 0
-289 -83 0
-289 -127 0
-289 -24 0
-289 -107 0
289 -182 83 127 24 107 0
-290 106 0
-290 107 0
-290 50 0
-290 -27 0
-290 177 0
290 -106 -107 -50 27 -177 0
286 287 288 289 290 0
-291 -54 0
-291 114 0
-291 -137 0
-291 73 0
-291 133 0
291 54 -114 137 -73 -133 0
-292 -105 0
-292 114 0
-292 -103 0
-292 -74 0
-292 157 0
292 105 -114 103 74 -157 0
-293 58 0
-293 40 0
-293 -179 0
-293 -6 0
-293 80 0
293 -58 -40 179 6 -80 0
-294 155 0
-294 143 0
-294 -189 0
-294 -112 0
-294 -185 0
294 -155 -143 189 112 185 0
-295 -158 0
-295 178 0
-295 -144 0
-295 -36 0
-295 -160 0
295 158 -178 144 36 160 0
291 292 293 294 295 0
-296 -73 0
-296 -29 0
-296 -44 0
-296 -129 0
-296 -81 0
296 73 29 44 129 81 0
-297 -109 0
-297 -37 0
-297 -99 0
-297 91 0
-297 175 0
297 109 37 99 -91 -175 0
-298 -15 0
-298 7 0
-298 -41 0
-298 23 0
-298 -124 0
298 15 -7 41 -23 124 0
-299 -99 0
-299 181 0
-299 -43 0
-299 -78 0
-299 -74 0
299 99 -181 43 78 74 0
-300 -62 0
-300 -41 0
-300 180 0
-300 -185 0
-300 -72 0
300 62 41 -180 185 72 0
296 297 298 299 300 0
-301 -155 0
-301 59 0
-301 -57 0
-301 23 0
-301 4 0
301 155 -59 57 -23 -4 0
-302 -118 0
-302 -64 0
-302 96 0
-302 -26 0
-302 76 0
302 118 64 -96 26 -76 0
-303 -116 0
-303 -55 0
-303 -189 0
-303 188 0
-303 -1 0
303 116 55 189 -188 1 0
-304 167 0
-304 166 0
-304 -83 0
-304 114 0
-304 55 0
304 -167 -166 83 -114 -55 0
-305 174 0
-305 10 0
-305 -6 0
-305 129 0
-305 88 0
305 -174 -10 6 -129 -88 0
301 302 303 304 305 0
-306 -89 0
-306 186 0
-306 90 0
-306 3 0
-306 64 0
306 89 -186 -90 -3 -64 0
-307 -97 0
-307 169 0
-307 171 0
-307 96 0
-307 -159 0
307 97 -169 -171 -96 159 0
-308 -100 0
-308 61 0
-308 84 0
-308 36 0
-308 94 0
308 100 -61 -84 -36 -94 0
-309 108 0
-309 -150 0
-309 158 0
-309 -31 0
-309 63 0
309 -108 150 -158 31 -63 0
-310 9 0
-310 94 0
-310 91 0
-310 -31 0
-310 -32 0
310 -9 -94 -91 31 32 0
306 307 308 309 310 0
-311 142 0
-311 -114 0
-311 62 0
-311 -74 0
-311 -136 0
311 -142 114 -62 74 136 0
-312 -96 0
-312 -37 0
-312 -169 0
-312 90 0
-312 142 0
312 96 37 169 -90 -142 0
-313 54 0
-313 155 0
-313 144 0
-313 -14 0
-313 -34 0
313 -54 -155 -144 14 34 0
-314 17 0
-314 117 0
-314 46 0
-314 -134 0
-314 -20 0
314 -17 -117 -46 134 20 0
-315 -174 0
-315 -190 0
-315 -114 0
-315 5 0
-315 -32 0
315 174 190 114 -5 32 0
311 312 313 314 315 0
-316 132 0
-316 -87 0
-316 72 0
-316 -163 0
-316 61 0
316 -132 87 -72 163 -61 0
-317 51 0
-317 -139 0
-317 163 0
-317 -39 0
-317 9 0
317 -51 139 -163 39 -9 0
-318 30 0
-318 108 0
-318 161 0
-318 143 0
-318 17 0
318 -30 -108 -161 -143 -17 0
-319 150 0
-319 -119 0
-319 69 0
-319 7 0
-319 28 0
319 -150 119 -69 -7 -28 0
-320 32 0
-320 45 0
-320 14 0
-320 -162 0
-320 -18 0
320 -32 -45 -14 162 18 0
316 317 318 319 320 0
-321 86 0
-321 42 0
-321 -2 0
-321 180 0
-321 179 0
321 -86 -42 2 -180 -179 0
-322 -39 0
-322 55 0
-322 64 0
-322 -119 0
-322 186 0
322 39 -55 -64 119 -186 0
-323 91 0
-323 34 0
-323 88 0
-323 -32 0
-323 150 0
323 -91 -34 -88 32 -150 0
-324 -32 0
-324 68 0
-324 -97 0
-324 145 0
-324 -118 0
324 32 -68 97 -145 118 0
-325 -89 0
-325 134 0
-325 50 0
-325 158 0
-325 -135 0
325 89 -134 -50 -158 135 0
321 322 323 324 325 0
-326 165 0
-326 -104 0
-326 -94 0
-326 -179 0
-326 -38 0
326 -165 104 94 179 38 0
-327 117 0
-327 81 0
-327 -44 0
-327 -47 0
-327 -138 0
327 -117 -81 44 47 138 0
-328 -140 0
-328 -47 0
-328 -41 0
-328 79 0
-328 -74 0
328 140 47 41 -79 74 0
-329 176 0
-329 -122 0
-329 -87 0
-329 91 0
-329 27 0
329 -176 122 87 -91 -27 0
-330 96 0
-330 -116 0
-330 -46 0
-330 124 0
-330 -70 0
330 -96 116 46 -124 70 0
326 327 328 329 330 0
-331 71 0
-331 97 0
-331 -158 0
-331 -140 0
-331 -186 0
331 -71 -97 158 140 186 0
-332 78 0
-332 1 0
-332 -149 0
-332 58 0
-332 85 0
332 -78 -1 149 -58 -85 0
-333 -84 0
-333 -134 0
-333 -175 0
-333 125 0
-333 -40 0
333 84 134 175 -125 40 0
-334 -56 0
-334 -69 0
-334 75 0
-334 90 0
-334 -48 0
334 56 69 -75 -90 48 0
-335 -189 0
-335 -33 0
-335 130 0
-335 -70 0
-335 -47 0
335 189 33 -130 70 47 0
331 332 333 334 335 0
-336 150 0
-336 -139 0
-336 -10 0
-336 -74 0
-336 157 0
336 -150 139 10 74 -157 0
-337 37 0
-337 -26 0
-337 -179 0
-337 -43 0
-337 95 0
337 -37 26 179 43 -95 0
-338 -179 0
-338 -11 0
-338 93 0
-338 189 0
-338 -29 0
338 179 11 -93 -189 29 0
-339 -75 0
-339 -10 0
-339 -93 0
-339 129 0
-339 65 0
339 75 10 93 -129 -65 0
-340 -152 0
-340 59 0
-340 -118 0
-340 -26 0
-340 53 0
340 152 -59 118 26 -53 0
336 337 338 339 340 0
-341 151 0
-341 -121 0
-341 -155 0
-341 160 0
-341 122 0
341 -151 121 155 -160 -122 0
-342 -133 0
-342 -113 0
-342 96 0
-342 -42 0
-342 81 0
342 133 113 -96 42 -81 0
-343 175 0
-343 116 0
-343 168 0
-343 -126 0
-343 -5 0
343 -175 -116 -168 126 5 0
-344 59 0
-344 80 0
-344 140 0
-344 -30 0
-344 163 0
344 -59 -80 -140 30 -163 0
-345 -86 0
-345 163 0
-345 -42 0
-345 -180 0
-345 34 0
345 86 -163 42 180 -34 0
341 342 343 344 345 0
-346 125 0
-346 10 0
-346 50 0
-346 -163 0
-346 -71 0
346 -125 -10 -50 163 71 0
-347 10 0
-347 -15 0
-347 -123 0
-347 34 0
-347 28 0
347 -10 15 123 -34 -28 0
-348 -30 0
-348 -68 0
-348 150 0
-348 40 0
-348 -112 0
348 30 68 -150 -40 112 0
-349 -138 0
-349 84 0
-349 -108 0
-349 -160 0
-349 127 0
349 138 -84 108 160 -127 0
-350 -119 0
-350 -118 0
-350 -77 0
-350 -138 0
-350 151 0
350 119 118 77 138 -151 0
346 347 348 349 350 0
-351 -189 0
-351 -190 0
-351 -18 0
-351 -50 0
-351 173 0
351 189 190 18 50 -173 0
-352 68 0
-352 -181 0
-352 -165 0
-352 -108 0
-352 15 0
352 -68 181 165 108 -15 0
-353 -53 0
-353 32 0
-353 -133 0
-353 51 0
-353 39 0
353 53 -32 133 -51 -39 0
-354 -20 0
-354 -41 0
-354 -85 0
-354 -71 0
-354 -68 0
354 20 41 85 71 68 0
-355 41 0
-355 80 0
-355 -43 0
-355 -180 0
-355 -40 0
355 -41 -80 43 180 40 0
351 352 353 354 355 0
-356 68 0
-356 138 0
-356 -164 0
-356 110 0
-356 -149 0
356 -68 -138 164 -110 149 0
-357 180 0
-357 95 0
-357 -39 0
-357 120 0
-357 25 0
357 -180 -95 39 -120 -25 0
-358 -20 0
-358 55 0
-358 -107 0
-358 71 0
-358 -44 0
358 20 -55 107 -71 44 0
-359 -12 0
-359 -77 0
-359 54 0
-359 128 0
-359 -176 0
359 12 77 -54 -128 176 0
-360 -65 0
-360 -86 0
-360 88 0
-360 183 0
-360 121 0
360 65 86 -88 -183 -121 0
356 357 358 359 360 0
-361 -19 0
-361 -105 0
-361 -57 0
-361 -127 0
-361 139 0
361 19 105 57 127 -139 0
-362 159 0
-362 167 0
-362 115 0
-362 -102 0
-362 93 0
362 -159 -167 -115 102 -93 0
-363 -181 0
-363 107 0
-363 -163 0
-363 -69 0
-363 -116 0
363 181 -107 163 69 116 0
-364 -100 0
-364 -92 0
-364 3 0
-364 138 0
-364 72 0
364 100 92 -3 -138 -72 0
-365 64 0
-365 -105 0
-365 -123 0
-365 11 0
-365 89 0
365 -64 105 123 -11 -89 0
361 362 363 364 365 0
-366 -26 0
-366 84 0
-366 12 0
-366 -77 0
-366 168 0
366 26 -84 -12 77 -168 0
-367 176 0
-367 119 0
-367 91 0
-367 -85 0
-367 33 0
367 -176 -119 -91 85 -33 0
-368 -111 0
-368 137 0
-368 -179 0
-368 50 0
-368 166 0
368 111 -137 179 -50 -166 0
-369 -9 0
-369 -121 0
-369 73 0
-369 -115 0
-369 84 0
369 9 121 -73 115 -84 0
-370 144 0
-370 145 0
-370 135 0
-370 48 0
-370 189 0
370 -144 -145 -135 -48 -189 0
366 367 368 369 370 0
-371 -78 0
-371 143 0
-371 -40 0
-371 84 0
-371 -15 0
371 78 -143 40 -84 15 0
-372 -118 0
-372 -145 0
-372 36 0
-372 166 0
-372 23 0
372 118 145 -36 -166 -23 0
-373 -10 0
-373 59 0
-373 90 0
-373 -188 0
-373 -28 0
373 10 -59 -90 188 28 0
-374 180 0
-374 -177 0
-374 -117 0
-374 -179 0
-374 -67 0
374 -180 177 117 179 67 0
-375 -26 0
-375 38 0
-375 -87 0
-375 8 0
-375 -107 0
375 26 -38 87 -8 107 0
371 372 373 374 375 0
-376 -83 0
-376 149 0
-376 81 0
-376 -121 0
-376 19 0
376 83 -149 -81 121 -19 0
-377 -164 0
-377 65 0
-377 131 0
-377 132 0
-377 172 0
377 164 -65 -131 -132 -172 0
-378 78 0
-378 106 0
-378 61 0
-378 7 0
-378 -59 0
378 -78 -106 -61 -7 59 0
-379 120 0
-379 -91 0
-379 26 0
-379 11 0
-379 98 0
379 -120 91 -26 -11 -98 0
-380 -155 0
-380 -111 0
-380 -51 0
-380 26 0
-380 -81 0
380 155 111 51 -26 81 0
376 377 378 379 380 0
-381 11 0
-381 85 0
-381 9 0
-381 27 0
-381 -32 0
381 -11 -85 -9 -27 32 0
-382 -53 0
-382 -91 0
-382 -6 0
-382 123 0
-382 -122 0
382 53 91 6 -123 122 0
-383 -140 0
-383 -118 0
-383 -45 0
-383 -54 0
-383 15 0
383 140 118 45 54 -15 0
-384 147 0
-384 102 0
-384 36 0
-384 157 0
-384 -101 0
384 -147 -102 -36 -157 101 0
-385 57 0
-385 -33 0
-385 -149 0
-385 88 0
-385 169 0
385 -57 33 149 -88 -169 0
381 382 383 384 385 0
-386 -168 0
-386 2 0
-386 -74 0
-386 33 0
-386 -41 0
386 168 -2 74 -33 41 0
-387 -75 0
-387 -46 0
-387 -39 0
-387 63 0
-387 -185 0
387 75 46 39 -63 185 0
-388 -26 0
-388 -83 0
-388 -190 0
-388 60 0
-388 -62 0
388 26 83 190 -60 62 0
-389 64 0
-389 -96 0
-389 160 0
-389 91 0
-389 143 0
389 -64 96 -160 -91 -143 0
-390 87 0
-390 145 0
-390 -45 0
-390 -2 0
-390 43 0
390 -87 -145 45 2 -43 0
386 387 388 389 390 0
-391 8 0
-391 -154 0
-391 98 0
-391 -30 0
-391 -90 0
391 -8 154 -98 30 90 0
-392 130 0
-392 62 0
-392 -24 0
-392 7 0
-392 183 0
392 -130 -62 24 -7 -183 0
-393 -181 0
-393 13 0
-393 131 0
-393 136 0
-393 -145 0
393 181 -13 -131 -136 145 0
-394 -137 0
-394 58 0
-394 54 0
-394 -70 0
-394 -124 0
394 137 -58 -54 70 124 0
-395 -163 0
-395 175 0
-395 160 0
-395 141 0
-395 -157 0
395 163 -175 -160 -141 157 0
391 392 393 394 395 0
-396 7 0
-396 54 0
-396 172 0
-396 111 0
-396 36 0
396 -7 -54 -172 -111 -36 0
-397 -150 0
-397 -40 0
-397 -118 0
-397 -70 0
-397 52 0
397 150 40 118 70 -52 0
-398 162 0
-398 -11 0
-398 -62 0
-398 -17 0
-398 -145 0
398 -162 11 62 17 145 0
-399 168 0
-399 -105 0
-399 -36 0
-399 10 0
-399 -52 0
399 -168 105 36 -10 52 0
-400 -25 0
-400 -48 0
-400 154 0
-400 91 0
-400 127 0
400 25 48 -154 -91 -127 0
396 397 398 399 400 0
-401 185 0
-401 -27 0
-401 -133 0
-401 -180 0
-401 55 0
401 -185 27 133 180 -55 0
-402 -56 0
-402 111 0
-402 -87 0
-402 -91 0
-402 -132 0
402 56 -111 87 91 132 0
-403 190 0
-403 43 0
-403 -98 0
-403 134 0
-403 -169 0
403 -190 -43 98 -134 169 0
-404 95 0
-404 28 0
-404 57 0
-404 47 0
-404 -105 0
404 -95 -28 -57 -47 105 0
-405 187 0
-405 -137 0
-405 -86 0
-405 -55 0
-405 -108 0
405 -187 137 86 55 108 0
401 402 403 404 405 0
-406 135 0
-406 108 0
-406 140 0
-406 35 0
-406 161 0
406 -135 -108 -140 -35 -161 0
-407 -119 0
-407 -30 0
-407 164 0
-407 54 0
-407 66 0
407 119 30 -164 -54 -66 0
-408 143 0
-408 112 0
-408 163 0
-408 -152 0
-408 -24 0
408 -143 -112 -163 152 24 0
-409 -106 0
-409 -134 0
-409 -97 0
-409 -135 0
-409 136 0
409 106 134 97 135 -136 0
-410 47 0
-410 -121 0
-410 -44 0
-410 -177 0
-410 174 0
410 -47 121 44 177 -174 0
406 407 408 409 410 0
-411 18 0
-411 -19 0
-411 -95 0
-411 -141 0
-411 135 0
411 -18 19 95 141 -135 0
-412 -44 0
-412 60 0
-412 21 0
-412 83 0
-412 -156 0
412 44 -60 -21 -83 156 0
-413 16 0
-413 -113 0
-413 30 0
-413 7 0
-413 112 0
413 -16 113 -30 -7 -112 0
-414 -63 0
-414 -107 0
-414 -154 0
-414 -122 0
-414 -130 0
414 63 107 154 122 130 0
-415 165 0
-415 -82 0
-415 -115 0
-415 -78 0
-415 -32 0
415 -165 82 115 78 32 0
411 412 413 414 415 0
-416 -46 0
-416 -148 0
-416 -156 0
-416 -90 0
-416 -107 0
416 46 148 156 90 107 0
-417 53 0
-417 -133 0
-417 16 0
-417 -49 0
-417 -57 0
417 -53 133 -16 49 57 0
-418 36 0
-418 -41 0
-418 -19 0
-418 6 0
-418 -63 0
418 -36 41 19 -6 63 0
-419 125 0
-419 -186 0
-419 15 0
-419 151 0
-419 124 0
419 -125 186 -15 -151 -124 0
-420 82 0
-420 109 0
-420 180 0
-420 60 0
-420 104 0
420 -82 -109 -180 -60 -104 0
416 417 418 419 420 0
-421 -130 0
-421 111 0
-421 49 0
-421 -2 0
-421 62 0
421 130 -111 -49 2 -62 0
-422 18 0
-422 88 0
-422 -171 0
-422 -159 0
-422 56 0
422 -18 -88 171 159 -56 0
-423 138 0
-423 181 0
-423 -175 0
-423 153 0
-423 -60 0
423 -138 -181 175 -153 60 0
-424 -2 0
-424 52 0
-424 41 0
-424 -122 0
-424 51 0
424 2 -52 -41 122 -51 0
-425 -77 0
-425 -148 0
-425 -124 0
-425 27 0
-425 149 0
425 77 148 124 -27 -149 0
421 422 423 424 425 0
-426 -103 0
-426 154 0
-426 -169 0
-426 184 0
-426 86 0
426 103 -154 169 -184 -86 0
-427 122 0
-427 44 0
-427 84 0
-427 -143 0
-427 -184 0
427 -122 -44 -84 143 184 0
-428 85 0
-428 190 0
-428 19 0
-428 181 0
-428 20 0
428 -85 -190 -19 -181 -20 0
-429 156 0
-429 -114 0
-429 106 0
-429 -117 0
-429 52 0
429 -156 114 -106 117 -52 0
-430 -76 0
-430 -156 0
-430 154 0
-430 83 0
-430 -159 0
430 76 156 -154 -83 159 0
426 427 428 429 430 0
